c Generated map
c Size: 13 * 13, weights in range: 1 to 10, walls: True, with ratio 0.1
c dim 3 of 3
c
p sp 169 253
c graph contains 169 nodes and 253 arcs
c
a 1 14 3
a 14 1 3
a 1 2 4
a 2 1 4
a 2 3 2
a 3 2 2
a 3 16 1
a 16 3 1
a 3 4 1
a 4 3 1
a 4 17 8
a 17 4 8
a 4 5 2
a 5 4 2
a 5 18 5
a 18 5 5
a 5 6 9
a 6 5 9
a 6 7 1
a 7 6 1
a 7 8 2
a 8 7 2
a 8 21 4
a 21 8 4
a 8 9 7
a 9 8 7
a 9 22 3
a 22 9 3
a 9 10 9
a 10 9 9
a 10 23 3
a 23 10 3
a 10 11 5
a 11 10 5
a 11 24 7
a 24 11 7
a 11 12 5
a 12 11 5
a 12 25 8
a 25 12 8
a 12 13 4
a 13 12 4
a 13 26 1
a 26 13 1
a 16 29 1
a 29 16 1
a 16 17 8
a 17 16 8
a 17 30 6
a 30 17 6
a 17 18 6
a 18 17 6
a 18 31 4
a 31 18 4
a 21 34 10
a 34 21 10
a 21 22 5
a 22 21 5
a 22 35 4
a 35 22 4
a 22 23 1
a 23 22 1
a 23 36 3
a 36 23 3
a 23 24 6
a 24 23 6
a 24 37 8
a 37 24 8
a 24 25 8
a 25 24 8
a 25 26 6
a 26 25 6
a 26 39 2
a 39 26 2
a 28 41 5
a 41 28 5
a 28 29 3
a 29 28 3
a 29 42 10
a 42 29 10
a 29 30 4
a 30 29 4
a 30 43 6
a 43 30 6
a 30 31 7
a 31 30 7
a 31 44 5
a 44 31 5
a 31 32 5
a 32 31 5
a 32 45 4
a 45 32 4
a 32 33 6
a 33 32 6
a 33 46 8
a 46 33 8
a 33 34 5
a 34 33 5
a 34 47 6
a 47 34 6
a 34 35 1
a 35 34 1
a 35 36 2
a 36 35 2
a 36 49 7
a 49 36 7
a 36 37 5
a 37 36 5
a 39 52 4
a 52 39 4
a 40 53 1
a 53 40 1
a 40 41 1
a 41 40 1
a 41 54 3
a 54 41 3
a 41 42 2
a 42 41 2
a 42 55 10
a 55 42 10
a 42 43 5
a 43 42 5
a 43 56 7
a 56 43 7
a 43 44 8
a 44 43 8
a 44 57 7
a 57 44 7
a 44 45 7
a 45 44 7
a 45 58 8
a 58 45 8
a 45 46 4
a 46 45 4
a 46 59 5
a 59 46 5
a 46 47 2
a 47 46 2
a 47 60 8
a 60 47 8
a 51 64 10
a 64 51 10
a 51 52 5
a 52 51 5
a 52 65 2
a 65 52 2
a 53 66 9
a 66 53 9
a 53 54 5
a 54 53 5
a 54 67 5
a 67 54 5
a 54 55 4
a 55 54 4
a 55 68 4
a 68 55 4
a 55 56 10
a 56 55 10
a 56 69 2
a 69 56 2
a 56 57 9
a 57 56 9
a 57 70 5
a 70 57 5
a 57 58 8
a 58 57 8
a 58 71 7
a 71 58 7
a 58 59 10
a 59 58 10
a 59 72 2
a 72 59 2
a 59 60 8
a 60 59 8
a 60 73 9
a 73 60 9
a 60 61 9
a 61 60 9
a 61 74 2
a 74 61 2
a 63 64 7
a 64 63 7
a 64 65 4
a 65 64 4
a 65 78 7
a 78 65 7
a 66 79 3
a 79 66 3
a 66 67 10
a 67 66 10
a 67 80 8
a 80 67 8
a 67 68 9
a 68 67 9
a 68 81 10
a 81 68 10
a 68 69 9
a 69 68 9
a 69 82 7
a 82 69 7
a 69 70 8
a 70 69 8
a 70 83 8
a 83 70 8
a 70 71 8
a 71 70 8
a 71 84 1
a 84 71 1
a 71 72 5
a 72 71 5
a 72 85 4
a 85 72 4
a 72 73 10
a 73 72 10
a 73 86 4
a 86 73 4
a 73 74 3
a 74 73 3
a 74 87 1
a 87 74 1
a 78 91 3
a 91 78 3
a 79 92 7
a 92 79 7
a 79 80 8
a 80 79 8
a 80 81 7
a 81 80 7
a 81 94 4
a 94 81 4
a 81 82 7
a 82 81 7
a 82 95 4
a 95 82 4
a 82 83 6
a 83 82 6
a 83 96 2
a 96 83 2
a 83 84 8
a 84 83 8
a 84 97 8
a 97 84 8
a 84 85 10
a 85 84 10
a 85 98 6
a 98 85 6
a 85 86 6
a 86 85 6
a 86 99 8
a 99 86 8
a 86 87 3
a 87 86 3
a 87 100 1
a 100 87 1
a 87 88 1
a 88 87 1
a 88 101 10
a 101 88 10
a 88 89 3
a 89 88 3
a 89 102 10
a 102 89 10
a 91 104 8
a 104 91 8
a 94 107 9
a 107 94 9
a 94 95 10
a 95 94 10
a 95 108 7
a 108 95 7
a 95 96 2
a 96 95 2
a 96 109 1
a 109 96 1
a 96 97 1
a 97 96 1
a 97 110 9
a 110 97 9
a 97 98 5
a 98 97 5
a 98 111 9
a 111 98 9
a 98 99 3
a 99 98 3
a 99 112 3
a 112 99 3
a 99 100 2
a 100 99 2
a 100 113 1
a 113 100 1
a 100 101 3
a 101 100 3
a 101 114 9
a 114 101 9
a 101 102 1
a 102 101 1
a 102 115 8
a 115 102 8
a 104 117 3
a 117 104 3
a 106 119 3
a 119 106 3
a 106 107 3
a 107 106 3
a 107 120 4
a 120 107 4
a 107 108 9
a 108 107 9
a 108 121 3
a 121 108 3
a 108 109 1
a 109 108 1
a 109 122 4
a 122 109 4
a 109 110 8
a 110 109 8
a 110 123 4
a 123 110 4
a 110 111 2
a 111 110 2
a 111 124 7
a 124 111 7
a 111 112 2
a 112 111 2
a 112 125 7
a 125 112 7
a 112 113 4
a 113 112 4
a 113 126 10
a 126 113 10
a 113 114 9
a 114 113 9
a 114 127 6
a 127 114 6
a 114 115 7
a 115 114 7
a 115 128 6
a 128 115 6
a 115 116 1
a 116 115 1
a 116 129 3
a 129 116 3
a 116 117 5
a 117 116 5
a 117 130 9
a 130 117 9
a 118 131 7
a 131 118 7
a 118 119 4
a 119 118 4
a 119 132 3
a 132 119 3
a 119 120 4
a 120 119 4
a 120 133 2
a 133 120 2
a 120 121 6
a 121 120 6
a 121 134 5
a 134 121 5
a 121 122 6
a 122 121 6
a 122 135 1
a 135 122 1
a 122 123 3
a 123 122 3
a 123 136 3
a 136 123 3
a 123 124 9
a 124 123 9
a 124 137 9
a 137 124 9
a 124 125 7
a 125 124 7
a 125 138 7
a 138 125 7
a 125 126 1
a 126 125 1
a 126 139 3
a 139 126 3
a 126 127 6
a 127 126 6
a 127 140 4
a 140 127 4
a 127 128 5
a 128 127 5
a 128 141 6
a 141 128 6
a 128 129 3
a 129 128 3
a 129 142 9
a 142 129 9
a 129 130 10
a 130 129 10
a 130 143 6
a 143 130 6
a 131 144 7
a 144 131 7
a 131 132 3
a 132 131 3
a 132 145 9
a 145 132 9
a 132 133 4
a 133 132 4
a 133 146 5
a 146 133 5
a 133 134 4
a 134 133 4
a 134 147 6
a 147 134 6
a 134 135 7
a 135 134 7
a 135 148 2
a 148 135 2
a 135 136 6
a 136 135 6
a 136 149 8
a 149 136 8
a 136 137 9
a 137 136 9
a 137 138 9
a 138 137 9
a 138 151 3
a 151 138 3
a 138 139 9
a 139 138 9
a 139 152 9
a 152 139 9
a 139 140 4
a 140 139 4
a 140 153 8
a 153 140 8
a 140 141 3
a 141 140 3
a 141 154 3
a 154 141 3
a 141 142 9
a 142 141 9
a 142 155 2
a 155 142 2
a 142 143 1
a 143 142 1
a 144 157 4
a 157 144 4
a 144 145 9
a 145 144 9
a 145 158 3
a 158 145 3
a 145 146 6
a 146 145 6
a 146 159 4
a 159 146 4
a 146 147 3
a 147 146 3
a 147 160 10
a 160 147 10
a 147 148 5
a 148 147 5
a 148 161 7
a 161 148 7
a 148 149 7
a 149 148 7
a 149 162 1
a 162 149 1
a 151 164 4
a 164 151 4
a 151 152 7
a 152 151 7
a 152 165 1
a 165 152 1
a 152 153 8
a 153 152 8
a 153 166 4
a 166 153 4
a 153 154 5
a 154 153 5
a 154 167 10
a 167 154 10
a 154 155 2
a 155 154 2
a 155 168 9
a 168 155 9
a 157 158 4
a 158 157 4
a 158 159 8
a 159 158 8
a 159 160 7
a 160 159 7
a 160 161 3
a 161 160 3
a 161 162 2
a 162 161 2
a 162 163 6
a 163 162 6
a 163 164 2
a 164 163 2
a 164 165 4
a 165 164 4
a 165 166 1
a 166 165 1
a 166 167 9
a 167 166 9
a 167 168 1
a 168 167 1
a 168 169 3
a 169 168 3
